
Gurobi 13.0.2 (win64) logging started Thu Jul 23 17:17:29 2026

Set parameter LogFile to value "E:\codes\ExactEBRP\results\gf_gurobi_performance_recovery_round29\runs\stage2__tight_T_seed5102__c3_replica__300s\external\native_logs\R.0.1.0.1.1.1.0.0.1_lp.gurobi.log"
Gurobi Optimizer version 13.0.2 build v13.0.2rc1 (win64 - Windows 10.0 (19045.2))

CPU model: 12th Gen Intel(R) Core(TM) i7-12700KF, instruction set [SSE2|AVX|AVX2]
Thread count: 12 physical cores, 20 logical processors, using up to 1 threads

Non-default parameters:
TimeLimit  133.7586079
MIPGap  0
MIPGapAbs  0
LogToConsole  0
Threads  1

Optimize a model with 11916 rows, 3378 columns and 67376 nonzeros (Min)
Model fingerprint: 0x8113191c
Model has 21 linear objective coefficients
Coefficient statistics:
  Matrix range     [7e-03, 2e+04]
  Objective range  [7e-03, 1e+00]
  Bounds range     [1e-01, 4e+02]
  RHS range        [8e-02, 5e+04]

Presolve removed 914 rows and 108 columns
Presolve time: 0.03s
Presolved: 11002 rows, 3271 columns, 63754 nonzeros

Iteration    Objective       Primal Inf.    Dual Inf.      Time
       0    1.4290454e-01   4.506519e+02   0.000000e+00      0s
    2907    2.3892791e-01   0.000000e+00   0.000000e+00      0s

Solved in 2907 iterations and 0.19 seconds (0.58 work units)
Optimal objective  2.389279126e-01

User-callback calls 3052, time in user-callback 0.00 sec
